(set-logic QF_S)
(declare-fun var0 () String)
(assert (str.in.re var0 (re.++ (re.* (re.+ (str.to.re "0"))) (re.++ (re.* (re.+ (str.to.re "11"))) (re.++ (re.union (re.* (str.to.re "222")) (re.* (str.to.re "3"))) (re.++ (re.* (re.union (str.to.re "444") (str.to.re "555"))) (re.++ (re.* (re.+ (str.to.re "6"))) (re.++ (re.+ (re.union (str.to.re "7") (str.to.re "88"))) (re.++ (re.+ (re.* (str.to.re "999"))) (re.++ (re.union (re.union (str.to.re "aaa") (str.to.re "bb")) (re.union (str.to.re "cc") (str.to.re "d"))) (re.++ (re.* (re.* (str.to.re "ee"))) (re.++ (re.union (re.+ (str.to.re "fff")) (re.+ (str.to.re "gg"))) (re.++ (re.* (re.union (str.to.re "h") (str.to.re "ii"))) (re.++ (re.union (re.* (str.to.re "jj")) (re.* (str.to.re "kk"))) (re.++ (re.+ (re.* (str.to.re "ll"))) (re.++ (re.union (re.* (str.to.re "mm")) (re.* (str.to.re "n"))) (re.++ (re.* (re.+ (str.to.re "ooo"))) (re.++ (re.+ (re.union (str.to.re "pp") (str.to.re "qqq"))) (re.++ (re.* (re.union (str.to.re "r") (str.to.re "s"))) (re.++ (re.* (re.+ (str.to.re "ttt"))) (re.* (re.union (str.to.re "uuu") (str.to.re "v")))))))))))))))))))))))
(check-sat)